StudentsNr = 15;
InstructorsNr = 10;
DaysNr = 2;
SlotsPerDay = 10;
AvailabilitySlotsLenght = 2;
RoomNr = 2;
ProgrammNr = 2;
DegreeNr = 1;
RolesNr = 2;
CoursesNr = 3;
InstructorsProgramm = [{2}, {2}, {1}, {1}, {2}, {2}, {2}, {1, 2}, {2}, {1, 2}];
InstructorRolesPerProgramm = [|{3, 4, 8}, {10}|{2, 6, 8}, {1, 5, 6, 10}|];
InstructorsAvailability = [|1, 1, 0, 1, 1, 1, 1, 1, 1, 1, |1, 0, 1, 1, 1, 1, 1, 0, 1, 1, |1, 1, 1, 1, 1, 1, 1, 0, 1, 1, |1, 1, 1, 1, 1, 1, 1, 1, 1, 1, |1, 1, 1, 1, 1, 1, 0, 1, 0, 0, |1, 1, 1, 0, 1, 1, 1, 0, 1, 0, |0, 0, 0, 0, 0, 1, 1, 1, 1, 0, |1, 1, 1, 1, 1, 1, 1, 1, 1, 1, |1, 1, 0, 0, 0, 1, 1, 1, 1, 1, |0, 0, 1, 0, 0, 0, 1, 1, 1, 1|];
StudentsProgramm = [2, 1, 2, 1, 2, 1, 1, 1, 1, 1, 1, 2, 1, 2, 2];
StudentsDegree = [1, 1, 1, 1, 1, 1, 1, 1, 1, 1, 1, 1, 1, 1, 1];
StudentsSupervisorId = [6, 4, 10, 8, 1, 10, 4, 8, 10, 10, 8, 10, 3, 1, 5];
StudentsCourseIds = [{}, {}, {}, {}, {}, {}, {}, {}, {}, {}, {}, {}, {}, {}, {}];
StudentsAvailability = [|0, 1, 1, 1, 1, 1, 1, 1, 1, 1, |0, 0, 1, 1, 1, 1, 1, 0, 0, 1, |0, 1, 1, 1, 1, 1, 1, 1, 1, 1, |1, 1, 1, 1, 1, 1, 1, 1, 1, 1, |0, 1, 1, 0, 0, 1, 1, 1, 1, 1, |1, 1, 1, 1, 1, 1, 1, 1, 1, 1, |0, 0, 1, 1, 1, 1, 1, 1, 1, 1, |1, 1, 0, 0, 1, 1, 1, 1, 1, 1, |0, 0, 1, 1, 1, 0, 0, 0, 0, 0, |1, 1, 1, 1, 1, 1, 1, 0, 0, 1, |0, 0, 1, 1, 1, 1, 1, 1, 0, 1, |0, 1, 1, 1, 0, 0, 1, 1, 1, 1, |1, 1, 1, 1, 1, 1, 1, 1, 1, 1, |1, 1, 1, 1, 1, 1, 1, 0, 0, 0, |1, 1, 1, 1, 1, 1, 1, 1, 1, 1|];
TheoryticalMinCard = [0, 0, 0, 0, 0, 0, 0, 0, 0, 0, 0, 0, 0, 0, 0];
CoursesInstructorIds = [{1, 2, 4, 5, 6, 8}, {1, 2, 8}, {1, 6, 8}];
RolesDemands = [0, 0];
RolesContinuity = [2];
ExamLen = [1, 1, 1, 1, 1, 1, 1, 1, 1, 1, 1, 1, 1, 1, 1];
LunchTsMinLen = 2;
LunchStarts = [5..6, 15..16];
SupervisorAvailable = 5;
OptimalLunchLenght = [2, 2];
OptimalStartTs = [1, 2];
OptimalFinishTs = [1, 9];
MinimizeRooms = 500;
RolesSoftContinuity = [|1, 2|2, 1|];
SameDegreeInRoom = 10;
Mergeability = 2;
